language ESSENCE' 1.0

letting n_courses be 99
letting n_periods be 16
letting prerequisite_RelationAsSet_Explicit_1 be
        [1, 1, 1, 1, 1, 1, 1, 1, 1, 1, 1, 1, 1, 1, 1, 1, 1, 1, 1, 1, 1, 1, 2, 2, 2, 2, 2, 2, 2, 2, 2, 2, 2, 2, 2, 2, 2,
         2, 2, 2, 2, 2, 2, 3, 3, 3, 3, 3, 3, 3, 3, 3, 3, 3, 3, 3, 3, 3, 3, 3, 3, 3, 3, 3, 3, 3, 4, 4, 4, 4, 4, 4, 4, 4,
         4, 4, 4, 4, 4, 4, 4, 4, 4, 4, 4, 4, 4, 4, 4, 4, 4, 4, 5, 5, 5, 5, 5, 5, 5, 5, 5, 5, 5, 5, 5, 5, 5, 5, 5, 5, 5,
         5, 5, 5, 6, 6, 6, 6, 6, 6, 6, 6, 6, 6, 6, 6, 6, 6, 6, 6, 6, 7, 7, 7, 7, 7, 7, 7, 7, 7, 7, 7, 7, 7, 7, 7, 7, 7,
         7, 7, 7, 7, 7, 7, 7, 7, 7, 7, 8, 8, 8, 8, 8, 8, 8, 8, 8, 8, 8, 8, 8, 8, 8, 8, 8, 8, 8, 8, 8, 8, 8, 8, 9, 9, 9,
         9, 9, 9, 9, 9, 9, 9, 9, 9, 9, 9, 9, 9, 9, 9, 9, 9, 10, 10, 10, 10, 10, 10, 10, 10, 10, 10, 10, 10, 10, 10, 10,
         10, 10, 11, 11, 11, 11, 11, 11, 11, 11, 11, 11, 11, 11, 11, 11, 11, 11, 11, 11, 11, 11, 12, 12, 12, 12, 12, 12,
         12, 12, 12, 12, 12, 12, 12, 12, 12, 12, 12, 12, 12, 12, 12, 12, 12, 12, 13, 13, 13, 13, 13, 13, 13, 13, 13, 13,
         13, 13, 13, 13, 13, 13, 13, 13, 13, 13, 13, 13, 13, 13, 14, 14, 14, 14, 14, 14, 14, 14, 14, 14, 14, 14, 14, 14,
         14, 14, 14, 14, 14, 15, 15, 15, 15, 15, 15, 15, 15, 15, 15, 15, 15, 15, 15, 15, 15, 15, 15, 15, 15, 15, 15, 16,
         16, 16, 16, 16, 16, 16, 16, 16, 16, 16, 16, 16, 16, 16, 16, 16, 16, 16, 16, 16, 16, 16, 16, 16, 16, 16, 17, 17,
         17, 17, 17, 17, 17, 17, 17, 17, 17, 17, 17, 17, 17, 17, 17, 17, 17, 17, 17, 17, 17, 17, 18, 18, 18, 18, 18, 18,
         18, 18, 18, 18, 18, 18, 18, 18, 18, 18, 18, 18, 18, 18, 18, 19, 19, 19, 19, 19, 19, 19, 19, 19, 19, 19, 19, 19,
         19, 19, 19, 19, 19, 19, 19, 20, 20, 20, 20, 20, 20, 21, 21, 21, 21, 21, 21, 21, 21, 22, 22, 22, 22, 22, 22, 22,
         23, 23, 23, 23, 23, 23, 23, 23, 23, 23, 24, 24, 24, 24, 24, 24, 24, 24, 24, 24, 24, 24, 24, 24, 24, 25, 25, 25,
         25, 25, 25, 25, 25, 25, 25, 25, 25, 25, 25, 25, 25, 25, 26, 26, 26, 26, 26, 26, 26, 26, 26, 26, 26, 26, 26, 26,
         27, 27, 27, 27, 27, 27, 27, 27, 27, 27, 27, 28, 28, 28, 28, 28, 28, 28, 28, 28, 28, 29, 29, 29, 29, 29, 29, 29,
         29, 29, 29, 30, 30, 30, 30, 30, 30, 30, 30, 30, 30, 30, 30, 31, 31, 31, 31, 31, 31, 31, 32, 32, 32, 32, 32, 32,
         33, 33, 33, 33, 33, 33, 33, 33, 33, 33, 34, 34, 34, 34, 34, 34, 34, 34, 34, 35, 35, 35, 35, 35, 35, 35, 35, 35,
         36, 36, 36, 36, 36, 36, 36, 36, 37, 37, 37, 37, 37, 37, 37, 37, 37, 38, 38, 38, 38, 38, 39, 39, 39, 39, 39, 39,
         39, 40, 40, 40, 40, 40, 40, 40, 40, 40, 40, 41, 41, 41, 41, 41, 41, 41, 41, 42, 42, 42, 42, 42, 42, 42, 42, 43,
         43, 43, 43, 43, 43, 43, 43, 43, 43, 43, 43, 43, 44, 44, 44, 44, 44, 44, 44, 44, 44, 44, 44, 45, 45, 45, 45, 45,
         45, 45, 45, 45, 45, 46, 46, 46, 46, 46, 46, 46, 46, 46, 46, 46, 46, 46, 47, 47, 47, 47, 47, 47, 48, 48, 48, 48,
         48, 48, 48, 48, 48, 48, 48, 49, 49, 49, 49, 49, 49, 49, 49, 49, 49, 50, 50, 50, 50, 50, 50, 51, 51, 51, 51, 51,
         51, 51, 51, 52, 52, 52, 52, 52, 52, 52, 52, 52, 52, 52, 52, 52, 53, 53, 53, 53, 53, 53, 53, 53, 53, 53, 53, 54,
         54, 54, 54, 54, 54, 54, 54, 54, 54, 55, 55, 55, 55, 55, 55, 55, 55, 55, 56, 56, 56, 56, 56, 56, 56, 56, 56, 56,
         57, 57, 57, 57, 57, 57, 57, 57, 57, 58, 58, 58, 58, 58, 58, 58, 58, 59, 59, 59, 59, 59, 59, 59, 59, 59, 60, 60,
         60, 60, 60, 60, 60, 60, 60, 60, 61, 61, 61, 61, 61, 61, 61, 61, 61, 61, 61, 62, 62, 62, 62, 62, 62, 62, 62, 62,
         63, 63, 63, 63, 63, 63, 63, 63, 63, 64, 64, 64, 64, 64, 64, 64, 64, 64, 64, 64, 65, 65, 65, 65, 65, 65, 65, 65,
         65, 66, 66, 66, 66, 66, 66, 66, 66, 66, 66, 67, 67, 67, 67, 67, 67, 67, 67, 67, 67, 67;
             int(1..883)]
letting prerequisite_RelationAsSet_Explicit_2 be
        [22, 23, 26, 28, 30, 32, 33, 34, 37, 38, 40, 41, 43, 44, 50, 52, 54, 56, 58, 61, 66, 67, 21, 24, 25, 26, 28, 29,
         30, 31, 43, 45, 46, 52, 53, 54, 57, 58, 60, 62, 64, 65, 67, 21, 22, 23, 26, 29, 30, 32, 33, 35, 36, 39, 43, 44,
         46, 47, 48, 49, 50, 52, 56, 57, 59, 61, 21, 24, 25, 27, 31, 32, 34, 36, 38, 39, 40, 42, 43, 45, 46, 48, 49, 50,
         53, 55, 57, 58, 60, 61, 64, 66, 22, 23, 24, 25, 29, 30, 31, 33, 36, 41, 42, 46, 47, 51, 52, 53, 58, 60, 62, 64,
         65, 67, 25, 27, 28, 38, 39, 40, 43, 48, 51, 52, 54, 55, 57, 60, 61, 64, 67, 20, 21, 22, 25, 27, 28, 32, 36, 37,
         39, 42, 45, 46, 47, 48, 49, 50, 51, 53, 54, 55, 56, 58, 61, 63, 64, 65, 21, 25, 26, 27, 28, 31, 35, 40, 41, 43,
         44, 46, 49, 51, 52, 56, 57, 58, 61, 63, 64, 65, 66, 67, 21, 22, 24, 25, 28, 29, 31, 32, 39, 40, 43, 45, 47, 48,
         50, 52, 53, 54, 58, 61, 22, 24, 30, 35, 39, 43, 44, 45, 46, 47, 49, 55, 59, 61, 62, 64, 66, 22, 27, 28, 29, 30,
         33, 35, 37, 40, 41, 42, 44, 45, 47, 48, 51, 58, 61, 62, 64, 20, 23, 26, 28, 29, 30, 35, 38, 39, 41, 42, 44, 46,
         47, 51, 52, 55, 56, 57, 58, 60, 61, 62, 67, 22, 26, 28, 31, 34, 36, 37, 38, 40, 43, 44, 46, 50, 51, 53, 55, 57,
         58, 60, 61, 62, 63, 66, 67, 20, 21, 23, 24, 30, 33, 36, 38, 46, 47, 48, 50, 51, 53, 56, 60, 61, 63, 64, 22, 23,
         25, 28, 29, 33, 34, 35, 38, 39, 40, 45, 49, 50, 51, 52, 53, 57, 59, 60, 62, 65, 21, 22, 24, 25, 26, 27, 28, 29,
         30, 31, 36, 39, 41, 42, 45, 46, 47, 49, 50, 53, 54, 56, 58, 61, 62, 65, 66, 20, 23, 25, 27, 28, 31, 34, 35, 38,
         41, 42, 44, 46, 47, 49, 55, 56, 57, 58, 59, 61, 62, 63, 66, 21, 27, 28, 30, 31, 32, 33, 35, 37, 39, 40, 43, 46,
         48, 49, 55, 56, 62, 63, 64, 65, 20, 22, 24, 27, 28, 33, 39, 41, 43, 44, 45, 46, 55, 56, 58, 59, 60, 61, 62, 67,
         76, 78, 80, 89, 93, 94, 68, 72, 76, 80, 84, 88, 90, 97, 69, 75, 81, 84, 85, 96, 97, 68, 73, 78, 79, 81, 87, 88,
         89, 95, 96, 68, 72, 73, 76, 77, 78, 79, 80, 85, 86, 91, 92, 95, 97, 99, 78, 79, 80, 81, 83, 84, 85, 86, 88, 90,
         91, 92, 93, 96, 97, 98, 99, 69, 77, 81, 84, 86, 87, 89, 90, 93, 94, 95, 96, 97, 99, 68, 71, 72, 76, 84, 85, 88,
         89, 91, 96, 98, 68, 73, 78, 79, 81, 84, 85, 90, 95, 97, 69, 70, 71, 75, 76, 78, 79, 82, 96, 99, 68, 69, 74, 77,
         88, 90, 91, 92, 94, 97, 98, 99, 78, 81, 85, 86, 89, 90, 93, 72, 79, 80, 89, 90, 93, 72, 73, 75, 81, 84, 85, 87,
         94, 96, 97, 74, 78, 80, 82, 84, 90, 92, 95, 99, 68, 70, 72, 87, 89, 90, 91, 92, 93, 69, 73, 77, 78, 79, 87, 97,
         99, 68, 76, 83, 84, 86, 93, 94, 95, 97, 70, 75, 87, 93, 98, 71, 72, 76, 91, 95, 97, 98, 68, 71, 76, 78, 80, 84,
         85, 86, 90, 97, 68, 69, 76, 80, 81, 84, 85, 89, 69, 70, 86, 87, 88, 89, 92, 96, 68, 72, 73, 77, 78, 82, 85, 86,
         87, 90, 91, 94, 99, 68, 69, 70, 74, 76, 78, 84, 89, 91, 95, 97, 69, 71, 76, 81, 82, 85, 87, 90, 94, 96, 72, 74,
         75, 77, 82, 83, 84, 88, 94, 95, 96, 97, 98, 71, 75, 87, 88, 91, 92, 69, 71, 76, 77, 79, 81, 82, 84, 89, 93, 96,
         71, 78, 83, 85, 86, 87, 91, 93, 95, 98, 69, 78, 81, 88, 94, 96, 70, 76, 78, 79, 82, 84, 96, 99, 73, 74, 76, 77,
         78, 80, 81, 86, 88, 92, 94, 96, 99, 71, 81, 82, 83, 84, 88, 93, 95, 96, 98, 99, 74, 76, 78, 82, 88, 89, 92, 94,
         97, 99, 69, 73, 79, 84, 85, 86, 92, 96, 99, 68, 69, 73, 74, 76, 80, 81, 91, 95, 97, 71, 73, 74, 77, 78, 79, 81,
         87, 92, 69, 74, 77, 80, 86, 92, 97, 99, 69, 72, 73, 78, 81, 87, 95, 98, 99, 69, 73, 79, 82, 85, 86, 87, 90, 91,
         96, 68, 72, 73, 79, 80, 81, 83, 89, 91, 92, 93, 72, 76, 77, 79, 83, 85, 93, 96, 99, 68, 70, 77, 78, 80, 83, 86,
         90, 93, 71, 72, 74, 77, 80, 81, 85, 90, 94, 95, 97, 71, 73, 79, 82, 83, 90, 91, 94, 99, 71, 74, 75, 79, 80, 82,
         84, 89, 94, 95, 69, 73, 76, 79, 82, 86, 92, 95, 96, 97, 98;
             int(1..883)]
letting course_load_Function1D be
        [6, 5, 7, 6, 3, 3, 7, 7, 3, 3, 5, 3, 7, 4, 6, 6, 4, 6, 5, 6, 5, 5, 6, 4, 7, 6, 4, 6, 5, 4, 3, 4, 6, 7, 4, 3, 5,
         5, 6, 3, 4, 5, 7, 7, 7, 5, 6, 5, 6, 6, 6, 6, 6, 6, 4, 6, 6, 4, 5, 6, 3, 6, 3, 3, 5, 4, 3, 4, 3, 3, 5, 5, 6, 6,
         5, 4, 6, 6, 5, 4, 7, 4, 6, 3, 6, 3, 4, 3, 5, 6, 3, 4, 7, 3, 5, 4, 3, 5, 3;
             int(1..99)]
letting load_per_period_ub be 31
letting load_per_period_lb be 10
letting courses_per_period_ub be 9
letting courses_per_period_lb be 3
letting fin1 be 883
letting fin2 be 99
letting fin3 be 7
